proyfinal/src/viki/013/andrea/andrea-localstore/experimentInOfficeAgust.take6/worker_10/4df41bc3-e1ec-4396-830f-196e1d9dc558.als.cnf.out
Reading from standard input... Use '--help' for help.
============================[ Problem Statistics ]=============================
|                                                                             |
|  Number of variables:         87638                                         |
|  Number of clauses:          161767                                         |
|  Parse time:                   0.04 s                                       |
|                                                                             |
============================[ Search Statistics ]==============================
| Conflicts |          ORIGINAL         |          LEARNT          | Progress |
|           |    Vars  Clauses Literals |    Limit  Clauses Lit/Cl |          |
===============================================================================
|       100 |   62021   103884   259566 |    38090      100     44 | 29.230 % |
|       250 |   62021   103884   259566 |    41899      250     58 | 29.230 % |
|       475 |   62020   103840   259476 |    46089      474     63 | 29.232 % |
|       812 |   62020   103840   259476 |    50698      811     71 | 29.232 % |
|      1318 |   62020   103840   259476 |    55768     1317     69 | 29.232 % |
|      2077 |   62020   103840   259476 |    61345     2076     67 | 29.232 % |
|      3216 |   62000   103762   259289 |    67480     2621     61 | 29.254 % |
|      4924 |   61992   103730   259201 |    74228     4260     63 | 29.264 % |
|      7486 |   46863    60755   153431 |    81651     5638     63 | 46.527 % |
===============================================================================
restarts              : 37
conflicts             : 8681           (7446 /sec)
decisions             : 26186          (0.00 % random) (22460 /sec)
propagations          : 13272066       (11383723 /sec)
conflict literals     : 490969         (54.53 % deleted)
Memory used           : 24.83 MB
CPU time              : 1.16588 s

UNSATISFIABLE
